************************************************************************
file with basedata            : mm43_.bas
initial value random generator: 550305761
************************************************************************
projects                      :  1
jobs (incl. supersource/sink ):  12
horizon                       :  76
RESOURCES
  - renewable                 :  2   R
  - nonrenewable              :  2   N
  - doubly constrained        :  0   D
************************************************************************
PROJECT INFORMATION:
pronr.  #jobs rel.date duedate tardcost  MPM-Time
    1     10      0        9        8        9
************************************************************************
PRECEDENCE RELATIONS:
jobnr.    #modes  #successors   successors
   0        1          3           1   2   3
   1        3          1           6
   2        3          2           5   8
   3        3          3           4   5   7
   4        3          2           9  10
   5        3          1          10
   6        3          1           8
   7        3          2           9  10
   8        3          1          11
   9        3          1          11
  10        3          1          11
  11        1          0        
************************************************************************
REQUESTS/DURATIONS:
jobnr. mode duration  R 1  R 2  R 3  R 4  E(W 1)
------------------------------------------------------------------------
  0      1     0       0    0    0    0     0
  1      1     5       3    4    0    3    50
  2      1     2       7    7    4    0    36
  3      1     3       4    8    0    6    54
  4      1     2       1    9    5    0    32
  5      1     3       4    9    8    0    63
  6      1     2       3    8    0    6    34
  7      1     3       9    8    0    9    78
  8      1     1       8    7    1    0    17
  9      1     3       5    3    0    8    48
 10      1     1       9    7    0   10    26
 11      1     0       0    0    0    0     0
************************************************************************
RESOURCEAVAILABILITIES:
  R 1
   116
************************************************************************
RESOURCE LIMITS:
jobnr.  l(R 1)  u(R 1)
------------------------------------------------------------------------
  0        0       0
  1        6      10
  2       10      18
  3        9      18
  4        9      16
  5       11      21
  6        9      17
  7       14      26
  8        9      17
  9        9      16
 10       14      26
 11        0       0
************************************************************************
SCENARIOS:
------------------------------------------------------------------------
RESOURCE k = 1
s = 1: (0, 38, 51, 56, 45, 71, 46, 87, 18, 48, 38, 0)
s = 2: (0, 36, 44, 44, 23, 46, 57, 62, 17, 45, 14, 0)
s = 3: (0, 44, 25, 31, 29, 108, 34, 110, 15, 37, 49, 0)
s = 4: (0, 29, 49, 39, 44, 73, 40, 92, 14, 41, 36, 0)
s = 5: (0, 44, 35, 57, 37, 58, 22, 96, 18, 39, 21, 0)
s = 6: (0, 43, 56, 59, 36, 46, 26, 81, 13, 59, 29, 0)
s = 7: (0, 46, 33, 61, 27, 34, 37, 70, 19, 34, 27, 0)
s = 8: (0, 48, 39, 31, 19, 40, 30, 104, 13, 27, 21, 0)
s = 9: (0, 64, 34, 47, 30, 93, 32, 86, 16, 60, 24, 0)
s = 10: (0, 51, 34, 51, 21, 101, 35, 55, 10, 32, 15, 0)
s = 11: (0, 60, 29, 54, 53, 85, 33, 78, 10, 39, 16, 0)
s = 12: (0, 43, 32, 30, 20, 64, 48, 91, 15, 32, 27, 0)
s = 13: (0, 42, 22, 41, 47, 67, 35, 66, 17, 46, 40, 0)
s = 14: (0, 50, 24, 50, 28, 41, 27, 70, 13, 55, 16, 0)
s = 15: (0, 71, 57, 36, 32, 94, 29, 102, 18, 45, 32, 0)
s = 16: (0, 35, 24, 53, 52, 66, 57, 59, 13, 64, 22, 0)
s = 17: (0, 43, 21, 49, 26, 66, 30, 140, 16, 45, 18, 0)
s = 18: (0, 38, 48, 49, 27, 72, 22, 86, 14, 49, 18, 0)
s = 19: (0, 34, 29, 31, 19, 76, 50, 112, 18, 59, 23, 0)
s = 20: (0, 69, 35, 73, 34, 49, 42, 68, 27, 53, 25, 0)
s = 21: (0, 27, 28, 53, 41, 52, 30, 80, 16, 43, 29, 0)
s = 22: (0, 52, 22, 84, 44, 56, 31, 61, 13, 34, 21, 0)
s = 23: (0, 57, 51, 46, 29, 75, 30, 75, 28, 52, 44, 0)
s = 24: (0, 41, 19, 77, 26, 88, 33, 84, 13, 61, 20, 0)
s = 25: (0, 51, 24, 36, 24, 73, 32, 52, 24, 40, 27, 0)
s = 26: (0, 47, 45, 58, 34, 51, 31, 77, 16, 52, 23, 0)
s = 27: (0, 37, 27, 42, 44, 60, 30, 72, 18, 43, 18, 0)
s = 28: (0, 27, 26, 64, 22, 70, 31, 54, 18, 42, 29, 0)
s = 29: (0, 46, 38, 53, 29, 103, 36, 112, 26, 63, 24, 0)
s = 30: (0, 36, 27, 64, 27, 74, 48, 122, 17, 37, 22, 0)
s = 31: (0, 41, 26, 53, 24, 52, 24, 68, 22, 67, 28, 0)
s = 32: (0, 59, 37, 73, 39, 50, 35, 89, 22, 77, 38, 0)
s = 33: (0, 51, 31, 33, 30, 53, 47, 128, 13, 68, 38, 0)
s = 34: (0, 41, 21, 58, 48, 45, 35, 66, 16, 62, 23, 0)
s = 35: (0, 51, 27, 58, 20, 57, 35, 77, 14, 37, 34, 0)
s = 36: (0, 37, 32, 45, 27, 48, 39, 52, 14, 45, 37, 0)
s = 37: (0, 52, 21, 45, 27, 66, 47, 74, 19, 43, 37, 0)
s = 38: (0, 62, 37, 60, 37, 62, 43, 60, 19, 44, 38, 0)
s = 39: (0, 66, 31, 71, 22, 47, 26, 107, 14, 50, 31, 0)
s = 40: (0, 59, 31, 80, 17, 50, 44, 69, 18, 37, 34, 0)
s = 41: (0, 34, 22, 47, 28, 79, 20, 81, 21, 83, 17, 0)
s = 42: (0, 35, 46, 51, 32, 59, 23, 119, 18, 82, 24, 0)
s = 43: (0, 51, 45, 54, 26, 54, 36, 96, 14, 42, 31, 0)
s = 44: (0, 47, 38, 30, 27, 49, 21, 90, 20, 85, 26, 0)
s = 45: (0, 55, 24, 54, 31, 66, 36, 123, 14, 64, 30, 0)
s = 46: (0, 30, 45, 65, 33, 69, 28, 67, 21, 56, 26, 0)
s = 47: (0, 68, 26, 38, 24, 69, 43, 56, 17, 35, 37, 0)
s = 48: (0, 46, 19, 54, 53, 45, 28, 54, 11, 65, 46, 0)
s = 49: (0, 43, 47, 62, 26, 69, 27, 55, 20, 72, 26, 0)
s = 50: (0, 42, 27, 54, 46, 36, 25, 73, 14, 56, 23, 0)
s = 51: (0, 47, 28, 40, 24, 61, 27, 83, 17, 68, 28, 0)
s = 52: (0, 34, 45, 35, 20, 93, 24, 79, 26, 67, 28, 0)
s = 53: (0, 32, 42, 56, 41, 46, 37, 54, 23, 33, 27, 0)
s = 54: (0, 51, 32, 38, 18, 56, 34, 136, 20, 36, 23, 0)
s = 55: (0, 44, 25, 50, 38, 55, 29, 64, 24, 44, 28, 0)
s = 56: (0, 47, 31, 63, 26, 55, 33, 62, 13, 43, 30, 0)
s = 57: (0, 30, 40, 71, 47, 52, 39, 68, 15, 34, 35, 0)
s = 58: (0, 29, 64, 49, 31, 47, 34, 66, 23, 71, 24, 0)
s = 59: (0, 58, 43, 65, 27, 43, 34, 77, 18, 46, 19, 0)
s = 60: (0, 66, 52, 67, 51, 107, 36, 70, 14, 46, 45, 0)
s = 61: (0, 40, 43, 43, 52, 64, 24, 76, 23, 51, 47, 0)
s = 62: (0, 49, 22, 46, 21, 45, 55, 47, 13, 66, 33, 0)
s = 63: (0, 35, 26, 51, 33, 74, 29, 87, 20, 28, 14, 0)
s = 64: (0, 30, 46, 80, 24, 70, 36, 70, 15, 44, 27, 0)
s = 65: (0, 39, 30, 66, 20, 55, 30, 91, 22, 42, 20, 0)
s = 66: (0, 63, 61, 68, 32, 101, 21, 76, 21, 60, 35, 0)
s = 67: (0, 51, 25, 46, 27, 74, 39, 86, 18, 27, 33, 0)
s = 68: (0, 37, 38, 42, 43, 86, 41, 69, 15, 68, 17, 0)
s = 69: (0, 47, 47, 36, 25, 94, 51, 120, 13, 57, 34, 0)
s = 70: (0, 63, 33, 76, 33, 102, 26, 54, 21, 59, 25, 0)
s = 71: (0, 79, 47, 44, 20, 41, 29, 83, 23, 44, 24, 0)
s = 72: (0, 33, 48, 43, 45, 47, 50, 66, 12, 41, 29, 0)
s = 73: (0, 56, 19, 36, 29, 37, 25, 102, 21, 52, 18, 0)
s = 74: (0, 74, 42, 44, 29, 48, 40, 63, 16, 66, 25, 0)
s = 75: (0, 33, 56, 44, 35, 52, 33, 108, 13, 38, 27, 0)
s = 76: (0, 54, 41, 64, 28, 105, 26, 64, 22, 56, 18, 0)
s = 77: (0, 81, 20, 35, 30, 46, 34, 82, 14, 53, 48, 0)
s = 78: (0, 67, 43, 40, 33, 92, 30, 68, 11, 61, 19, 0)
s = 79: (0, 38, 54, 38, 34, 111, 30, 67, 17, 75, 21, 0)
s = 80: (0, 30, 34, 47, 33, 78, 28, 48, 12, 33, 24, 0)
s = 81: (0, 41, 35, 42, 23, 64, 20, 79, 21, 32, 14, 0)
s = 82: (0, 58, 38, 68, 41, 68, 41, 81, 14, 53, 23, 0)
s = 83: (0, 35, 25, 44, 34, 42, 24, 65, 25, 52, 21, 0)
s = 84: (0, 67, 27, 49, 30, 49, 35, 62, 9, 51, 31, 0)
s = 85: (0, 64, 32, 58, 32, 64, 67, 70, 19, 35, 15, 0)
s = 86: (0, 44, 21, 34, 30, 58, 27, 75, 22, 37, 22, 0)
s = 87: (0, 43, 37, 39, 26, 52, 35, 63, 14, 45, 26, 0)
s = 88: (0, 59, 47, 61, 40, 66, 38, 58, 16, 32, 29, 0)
s = 89: (0, 38, 51, 53, 48, 66, 38, 101, 10, 47, 36, 0)
s = 90: (0, 54, 28, 62, 33, 45, 32, 68, 16, 59, 17, 0)
s = 91: (0, 60, 33, 60, 28, 55, 27, 96, 16, 41, 24, 0)
s = 92: (0, 26, 27, 60, 33, 59, 33, 42, 13, 37, 27, 0)
s = 93: (0, 38, 43, 42, 24, 78, 30, 91, 19, 45, 24, 0)
s = 94: (0, 38, 23, 41, 36, 54, 30, 74, 17, 58, 29, 0)
s = 95: (0, 52, 35, 68, 21, 62, 47, 59, 18, 52, 20, 0)
s = 96: (0, 49, 39, 67, 26, 59, 28, 59, 11, 49, 19, 0)
s = 97: (0, 54, 28, 60, 21, 45, 42, 80, 16, 40, 30, 0)
s = 98: (0, 38, 35, 43, 45, 81, 41, 87, 20, 53, 31, 0)
s = 99: (0, 37, 47, 51, 30, 48, 21, 52, 21, 40, 22, 0)
s = 100: (0, 42, 53, 70, 54, 66, 25, 73, 14, 35, 27, 0)
s = 101: (0, 80, 25, 45, 22, 96, 46, 99, 22, 31, 27, 0)
s = 102: (0, 40, 26, 65, 33, 78, 24, 77, 29, 45, 15, 0)
s = 103: (0, 39, 52, 30, 25, 47, 56, 105, 19, 36, 23, 0)
s = 104: (0, 80, 34, 33, 37, 64, 41, 98, 12, 50, 27, 0)
s = 105: (0, 49, 29, 37, 20, 73, 40, 112, 20, 61, 21, 0)
s = 106: (0, 40, 36, 53, 18, 66, 33, 60, 17, 57, 29, 0)
s = 107: (0, 64, 34, 39, 41, 63, 44, 50, 20, 61, 36, 0)
s = 108: (0, 38, 45, 33, 27, 61, 38, 63, 20, 73, 27, 0)
s = 109: (0, 31, 43, 67, 21, 44, 34, 111, 24, 61, 19, 0)
s = 110: (0, 64, 33, 48, 41, 46, 35, 128, 18, 43, 30, 0)
s = 111: (0, 38, 48, 78, 31, 64, 29, 50, 14, 44, 18, 0)
s = 112: (0, 46, 33, 48, 24, 97, 33, 55, 19, 49, 34, 0)
s = 113: (0, 35, 31, 34, 42, 53, 35, 86, 23, 74, 29, 0)
s = 114: (0, 56, 36, 66, 27, 46, 42, 89, 21, 33, 22, 0)
s = 115: (0, 61, 49, 47, 41, 52, 43, 117, 17, 52, 21, 0)
s = 116: (0, 60, 19, 40, 30, 63, 37, 94, 31, 79, 22, 0)
s = 117: (0, 53, 29, 76, 32, 64, 54, 51, 12, 45, 24, 0)
s = 118: (0, 43, 26, 64, 23, 90, 22, 55, 12, 44, 17, 0)
s = 119: (0, 48, 38, 63, 36, 44, 28, 70, 15, 80, 22, 0)
s = 120: (0, 63, 31, 39, 24, 78, 34, 134, 16, 58, 27, 0)
s = 121: (0, 44, 61, 44, 34, 50, 25, 84, 19, 41, 18, 0)
s = 122: (0, 60, 38, 56, 38, 44, 23, 74, 18, 31, 17, 0)
s = 123: (0, 68, 49, 57, 25, 86, 48, 105, 15, 51, 36, 0)
s = 124: (0, 32, 24, 45, 55, 51, 20, 79, 15, 59, 18, 0)
s = 125: (0, 63, 33, 82, 25, 75, 36, 103, 25, 51, 25, 0)
s = 126: (0, 84, 34, 70, 21, 59, 34, 86, 14, 56, 33, 0)
s = 127: (0, 58, 26, 42, 19, 83, 46, 115, 24, 72, 26, 0)
s = 128: (0, 50, 24, 54, 45, 60, 37, 62, 16, 56, 41, 0)
s = 129: (0, 64, 21, 40, 41, 66, 48, 44, 20, 37, 34, 0)
s = 130: (0, 54, 31, 70, 25, 75, 55, 60, 23, 52, 20, 0)
s = 131: (0, 49, 22, 68, 32, 54, 34, 45, 15, 68, 21, 0)
s = 132: (0, 47, 25, 44, 30, 46, 30, 47, 15, 35, 38, 0)
s = 133: (0, 31, 31, 57, 25, 89, 38, 66, 14, 79, 33, 0)
s = 134: (0, 32, 42, 47, 35, 61, 45, 120, 12, 50, 29, 0)
s = 135: (0, 52, 50, 36, 46, 76, 42, 92, 10, 26, 44, 0)
s = 136: (0, 34, 38, 38, 41, 60, 45, 90, 12, 34, 25, 0)
s = 137: (0, 69, 49, 57, 34, 76, 39, 104, 16, 38, 38, 0)
s = 138: (0, 38, 37, 70, 35, 57, 62, 83, 22, 36, 26, 0)
s = 139: (0, 47, 43, 49, 33, 63, 33, 101, 16, 46, 36, 0)
s = 140: (0, 52, 43, 38, 29, 36, 49, 56, 16, 48, 19, 0)
s = 141: (0, 47, 27, 52, 50, 68, 25, 86, 17, 79, 21, 0)
s = 142: (0, 37, 28, 60, 24, 41, 58, 89, 19, 71, 32, 0)
s = 143: (0, 49, 19, 66, 38, 118, 33, 103, 13, 26, 21, 0)
s = 144: (0, 50, 64, 49, 43, 53, 41, 71, 14, 70, 20, 0)
s = 145: (0, 37, 28, 49, 31, 90, 50, 74, 16, 63, 42, 0)
s = 146: (0, 53, 37, 34, 28, 80, 19, 116, 17, 78, 28, 0)
s = 147: (0, 35, 33, 45, 41, 46, 37, 61, 22, 86, 21, 0)
s = 148: (0, 38, 26, 96, 25, 60, 28, 68, 17, 50, 23, 0)
s = 149: (0, 76, 48, 63, 21, 59, 29, 105, 16, 51, 32, 0)
s = 150: (0, 37, 38, 40, 31, 77, 32, 98, 18, 55, 22, 0)
s = 151: (0, 31, 44, 41, 37, 72, 30, 84, 28, 52, 22, 0)
s = 152: (0, 40, 55, 30, 21, 58, 36, 75, 11, 34, 32, 0)
s = 153: (0, 65, 44, 65, 21, 68, 38, 101, 21, 47, 39, 0)
s = 154: (0, 39, 39, 52, 28, 94, 30, 43, 13, 36, 22, 0)
s = 155: (0, 44, 47, 66, 31, 57, 22, 74, 23, 72, 17, 0)
s = 156: (0, 79, 56, 62, 35, 54, 29, 45, 15, 55, 40, 0)
s = 157: (0, 40, 49, 44, 38, 50, 53, 72, 17, 44, 31, 0)
s = 158: (0, 51, 28, 56, 22, 76, 46, 70, 22, 97, 24, 0)
s = 159: (0, 60, 39, 60, 31, 65, 54, 44, 21, 83, 15, 0)
s = 160: (0, 76, 46, 40, 39, 72, 35, 74, 13, 47, 22, 0)
s = 161: (0, 45, 29, 39, 38, 72, 42, 67, 14, 62, 23, 0)
s = 162: (0, 56, 30, 50, 17, 48, 39, 45, 23, 29, 16, 0)
s = 163: (0, 63, 26, 62, 28, 66, 49, 74, 15, 31, 22, 0)
s = 164: (0, 39, 34, 81, 45, 77, 34, 50, 16, 58, 25, 0)
s = 165: (0, 62, 29, 63, 27, 62, 37, 81, 11, 70, 30, 0)
s = 166: (0, 70, 29, 58, 36, 54, 27, 51, 16, 36, 34, 0)
s = 167: (0, 42, 36, 53, 38, 69, 49, 58, 17, 44, 40, 0)
s = 168: (0, 68, 33, 31, 40, 106, 23, 75, 18, 41, 19, 0)
s = 169: (0, 36, 39, 63, 27, 49, 44, 113, 25, 39, 16, 0)
s = 170: (0, 42, 53, 42, 21, 65, 44, 87, 20, 60, 24, 0)
s = 171: (0, 37, 66, 51, 24, 46, 30, 65, 12, 40, 22, 0)
s = 172: (0, 36, 32, 66, 22, 75, 30, 65, 10, 53, 30, 0)
s = 173: (0, 44, 39, 43, 24, 94, 36, 52, 19, 30, 31, 0)
s = 174: (0, 34, 28, 41, 44, 52, 29, 89, 26, 50, 23, 0)
s = 175: (0, 38, 36, 76, 30, 82, 25, 82, 11, 43, 34, 0)
s = 176: (0, 68, 26, 62, 32, 77, 38, 53, 19, 29, 35, 0)
s = 177: (0, 59, 24, 58, 30, 74, 32, 60, 13, 38, 23, 0)
s = 178: (0, 37, 32, 78, 36, 59, 31, 110, 20, 32, 27, 0)
s = 179: (0, 57, 31, 34, 34, 63, 43, 64, 15, 49, 28, 0)
s = 180: (0, 47, 57, 77, 36, 54, 34, 106, 14, 37, 21, 0)
s = 181: (0, 72, 46, 32, 27, 53, 34, 57, 17, 33, 37, 0)
s = 182: (0, 30, 40, 53, 56, 56, 29, 83, 13, 53, 18, 0)
s = 183: (0, 39, 37, 66, 31, 64, 27, 69, 18, 60, 16, 0)
s = 184: (0, 41, 32, 53, 28, 100, 32, 82, 17, 48, 38, 0)
s = 185: (0, 45, 20, 73, 40, 48, 48, 90, 11, 36, 29, 0)
s = 186: (0, 45, 37, 44, 26, 79, 27, 60, 11, 36, 18, 0)
s = 187: (0, 35, 29, 68, 43, 54, 40, 52, 18, 40, 17, 0)
s = 188: (0, 51, 38, 36, 47, 94, 50, 60, 18, 47, 39, 0)
s = 189: (0, 60, 49, 81, 23, 41, 39, 113, 11, 51, 22, 0)
s = 190: (0, 46, 28, 114, 22, 73, 43, 62, 19, 46, 23, 0)
s = 191: (0, 43, 27, 72, 29, 44, 29, 62, 17, 51, 29, 0)
s = 192: (0, 33, 31, 77, 28, 68, 38, 82, 15, 57, 33, 0)
s = 193: (0, 48, 28, 58, 30, 95, 38, 58, 24, 26, 24, 0)
s = 194: (0, 28, 47, 42, 47, 91, 52, 52, 21, 47, 23, 0)
s = 195: (0, 43, 48, 44, 29, 38, 35, 96, 19, 49, 20, 0)
s = 196: (0, 62, 34, 49, 58, 65, 30, 104, 17, 79, 33, 0)
s = 197: (0, 51, 50, 51, 34, 40, 32, 97, 16, 41, 14, 0)
s = 198: (0, 58, 49, 54, 32, 50, 45, 58, 11, 42, 26, 0)
s = 199: (0, 46, 34, 53, 22, 61, 35, 81, 15, 56, 25, 0)
s = 200: (0, 42, 48, 43, 17, 84, 30, 77, 12, 34, 23, 0)
************************************************************************
ES/LS-VALUES:
jobnr.   ES(i)    LS(i)
------------------------------------------------------------------------
  0        0        0
  1        0       61
  2        0       64
  3        0       56
  4        6       65
  5        6       68
  6        8       70
  7        6       63
  8       11       74
  9       11       69
 10       11       74
 11       17       76
************************************************************************
BIG-M-VALUES:
M1 = 14, M2 = 140
************************************************************************
